(set-option :print-success true)
(set-option :produce-assignments true)
(set-option :produce-proofs true)
(set-logic HO_QF_UF)
(declare-sort Tindex_2 0)
(declare-sort Tindex_1 0)
(declare-sort Tindex_0 0)
(declare-sort Tindex_3 0)
(declare-fun op_0 () Tindex_1)
(declare-fun op_5 (Tindex_0 Tindex_3 ) Tindex_0)
(declare-fun op_2 () Tindex_3)
(declare-fun op_3 (Tindex_3 ) Tindex_0)
(declare-fun op_6 () Tindex_0)
(declare-fun op_4 (Tindex_1 Tindex_2 Tindex_0 ) Tindex_0)
(declare-fun op_7 (Tindex_0 Tindex_0 ) Tindex_0)
(declare-fun op_1 () Tindex_2)
(assert (= (op_4 op_0 op_1 (op_3 op_2)) (op_5 (op_4 op_0 op_1) op_2)))
(check-sat)
